set VV := 0 1 2 3 4 5 6 7 8 9 10 11 12 13 14 15 16 17 18 19 20 21 22 ;
set VS := 0 1 2 3 4 5 6 7 8 9 10 11 12 13 14 15 16 17 18 19 20 21 22 23 24 25 26 27 28 29 30 31 32 33 34 35 36 37 38 39 40 41 42 43 44 45 46 47 48 49 ;
param cv := 
0 11
1 13
2 17
3 10
4 22
5 19
6 13
7 17
8 24
9 11
10 18
11 17
12 22
13 19
14 15
15 10
16 10
17 11
18 21
19 21
20 25
21 11
22 20
;
param cs := 
0 32
1 38
2 29
3 21
4 27
5 26
6 24
7 22
8 21
9 39
10 36
11 38
12 23
13 21
14 21
15 28
16 34
17 38
18 37
19 24
20 21
21 25
22 30
23 34
24 27
25 38
26 36
27 35
28 40
29 30
30 31
31 24
32 31
33 34
34 35
35 39
36 31
37 27
38 28
39 35
40 39
41 28
42 24
43 35
44 23
45 22
46 33
47 29
48 27
49 22
;
param bv:	 0 1 2 3 4 5 6 7 8 9 10 11 12 13 14 15 16 17 18 19 20 21 22 := 
		0 0 0 0 0 0 20 0 0 0 0 0 0 19 0 0 0 0 0 20 0 0 0 0 
		1 0 0 0 0 0 0 13 0 0 0 15 0 0 0 0 0 0 0 0 25 0 0 0 
		2 0 0 0 0 0 0 0 0 0 0 0 0 0 0 0 0 0 18 0 0 16 0 0 
		3 0 0 0 0 14 0 0 0 0 0 0 0 0 0 0 0 0 0 0 0 0 0 0 
		4 0 0 0 0 0 0 0 0 0 0 22 0 0 0 0 0 0 0 18 0 0 0 0 
		5 0 0 0 0 0 0 0 19 0 20 0 0 0 0 0 0 0 0 0 0 0 0 0 
		6 0 0 0 0 0 0 0 0 0 0 0 0 0 0 0 0 0 0 0 0 0 0 0 
		7 0 0 0 0 0 0 0 0 0 0 0 0 0 0 12 0 0 0 0 0 0 22 0 
		8 0 0 0 0 0 0 0 0 0 0 0 0 0 0 18 12 0 10 0 0 0 0 0 
		9 0 0 0 0 0 0 0 0 0 0 0 25 21 0 0 0 0 0 0 18 23 0 0 
		10 0 0 0 0 0 0 0 0 0 0 0 0 0 19 0 0 23 0 0 0 23 0 0 
		11 0 0 0 0 0 0 0 0 0 0 0 0 16 0 0 0 0 0 0 0 0 0 0 
		12 0 0 0 0 0 0 0 0 0 0 0 0 0 0 0 0 0 0 0 0 0 0 0 
		13 0 0 0 0 0 0 0 0 0 0 0 0 0 0 0 0 0 0 0 0 11 0 0 
		14 0 0 0 0 0 0 0 0 0 0 0 0 0 0 0 22 0 0 0 0 0 0 0 
		15 0 0 0 0 0 0 0 0 0 0 0 0 0 0 0 0 0 0 23 0 0 0 21 
		16 0 0 0 0 0 0 0 0 0 0 0 0 0 0 0 0 0 0 0 0 0 0 0 
		17 0 0 0 0 0 0 0 0 0 0 0 0 0 0 0 0 0 0 0 0 0 0 0 
		18 0 0 0 0 0 0 0 0 0 0 0 0 0 0 0 0 0 0 0 0 0 0 0 
		19 0 0 0 0 0 0 0 0 0 0 0 0 0 0 0 0 0 0 0 0 0 0 23 
		20 0 0 0 0 0 0 0 0 0 0 0 0 0 0 0 0 0 0 0 0 0 0 0 
		21 0 0 0 0 0 0 0 0 0 0 0 0 0 0 0 0 0 0 0 0 0 0 0 
		22 0 0 0 0 0 0 0 0 0 0 0 0 0 0 0 0 0 0 0 0 0 0 0 
;
param bs:	 0 1 2 3 4 5 6 7 8 9 10 11 12 13 14 15 16 17 18 19 20 21 22 23 24 25 26 27 28 29 30 31 32 33 34 35 36 37 38 39 40 41 42 43 44 45 46 47 48 49 := 
		0 0 0 0 23 0 0 0 0 0 0 0 0 0 0 0 0 0 0 0 0 0 0 38 24 0 0 0 0 0 0 0 0 0 0 0 0 0 0 0 0 0 30 0 0 0 0 0 0 0 0 
		1 0 0 0 0 0 0 0 0 0 0 0 0 0 0 0 0 0 0 0 0 0 0 0 0 0 0 0 0 0 0 0 0 0 27 0 0 0 0 0 0 0 0 25 0 0 0 0 0 0 0 
		2 0 0 0 0 0 31 0 0 0 0 0 0 0 0 0 0 0 0 33 0 0 25 0 21 0 0 0 0 0 0 0 0 26 0 0 0 0 0 0 0 0 0 0 0 29 0 0 0 0 0 
		3 23 0 0 0 0 0 0 0 0 0 0 0 0 28 0 0 0 0 0 0 0 0 0 0 0 0 0 0 0 0 0 31 0 0 0 0 0 0 40 0 0 0 0 0 0 0 0 0 0 0 
		4 0 0 0 0 0 26 0 0 0 40 0 0 0 0 0 0 0 0 0 0 0 0 0 38 0 0 0 0 0 0 0 0 0 0 0 0 0 0 0 0 0 0 0 0 0 0 0 0 0 0 
		5 0 0 31 0 26 0 0 0 36 0 0 40 0 21 0 0 0 40 0 0 0 0 37 0 0 0 0 0 0 0 33 0 0 0 0 0 0 0 0 0 0 0 0 0 0 0 0 0 0 0 
		6 0 0 0 0 0 0 0 0 0 0 0 0 0 0 0 20 27 0 0 0 0 0 0 0 0 0 0 0 0 0 0 0 39 0 38 0 0 0 0 0 0 0 0 0 0 37 0 0 0 33 
		7 0 0 0 0 0 0 0 0 0 0 29 0 0 36 0 0 0 0 0 0 0 0 0 0 0 25 20 0 39 0 0 0 0 0 0 35 0 0 0 0 0 0 0 0 0 0 38 0 0 0 
		8 0 0 0 0 0 36 0 0 0 0 0 24 0 0 0 0 0 0 0 0 0 24 0 30 0 0 0 0 0 0 0 0 0 34 0 0 0 0 0 0 0 0 0 0 37 0 0 0 0 0 
		9 0 0 0 0 40 0 0 0 0 0 0 26 0 0 28 0 0 0 33 0 0 0 40 0 29 0 0 0 0 0 0 0 0 0 25 0 0 34 0 0 0 0 0 0 0 0 0 0 0 0 
		10 0 0 0 0 0 0 0 29 0 0 0 0 0 0 0 0 0 0 0 0 0 0 33 0 25 0 0 0 0 38 0 0 0 0 0 0 0 0 0 0 0 0 0 0 0 0 0 0 0 0 
		11 0 0 0 0 0 40 0 0 24 26 0 0 0 40 38 0 0 0 0 0 0 0 35 0 0 40 0 0 0 0 0 0 0 0 0 0 0 0 0 35 0 26 28 0 0 0 0 0 0 0 
		12 0 0 0 0 0 0 0 0 0 0 0 0 0 0 0 0 0 0 0 29 0 0 0 0 0 21 0 0 0 0 0 0 0 0 32 0 0 0 0 0 0 0 0 0 0 0 0 0 0 0 
		13 0 0 0 28 0 21 0 36 0 0 0 40 0 0 0 0 0 0 0 0 0 0 0 0 0 0 0 0 0 31 0 0 0 0 0 0 0 0 0 0 0 0 0 0 0 0 0 0 0 0 
		14 0 0 0 0 0 0 0 0 0 28 0 38 0 0 0 0 23 0 0 0 0 0 0 25 0 0 0 0 0 0 0 0 0 0 0 0 0 0 21 0 0 0 0 0 0 0 0 0 0 0 
		15 0 0 0 0 0 0 20 0 0 0 0 0 0 0 0 0 0 35 0 0 0 33 0 0 0 0 0 0 0 0 0 0 0 0 0 0 27 39 0 0 0 0 31 0 0 0 0 0 0 26 
		16 0 0 0 0 0 0 27 0 0 0 0 0 0 0 23 0 0 20 22 0 0 0 0 0 34 23 0 0 0 0 24 0 0 0 0 0 0 0 0 33 0 0 0 0 20 0 0 0 0 0 
		17 0 0 0 0 0 40 0 0 0 0 0 0 0 0 0 35 20 0 0 0 0 0 0 0 0 0 0 0 0 0 0 0 0 0 0 0 0 0 0 0 0 25 0 40 0 0 0 0 0 0 
		18 0 0 33 0 0 0 0 0 0 33 0 0 0 0 0 0 22 0 0 0 35 0 0 0 0 0 0 0 0 0 0 0 0 0 0 0 38 0 0 0 0 0 0 0 0 0 0 0 0 0 
		19 0 0 0 0 0 0 0 0 0 0 0 0 29 0 0 0 0 0 0 0 0 0 0 0 0 0 0 0 0 0 0 0 0 0 24 0 0 32 0 0 0 0 36 36 0 0 0 0 35 0 
		20 0 0 0 0 0 0 0 0 0 0 0 0 0 0 0 0 0 0 35 0 0 0 0 0 0 0 0 0 0 0 0 0 0 0 0 0 24 0 0 0 0 0 0 38 0 0 0 39 0 21 
		21 0 0 25 0 0 0 0 0 24 0 0 0 0 0 0 33 0 0 0 0 0 0 0 0 0 0 37 0 0 38 0 0 0 0 0 22 0 0 25 0 0 0 0 0 0 0 0 0 0 0 
		22 38 0 0 0 0 37 0 0 0 40 33 35 0 0 0 0 0 0 0 0 0 0 0 0 0 0 0 0 0 0 0 38 0 22 0 0 0 0 0 0 0 0 0 0 0 0 0 37 0 0 
		23 24 0 21 0 38 0 0 0 30 0 0 0 0 0 25 0 0 0 0 0 0 0 0 0 23 0 27 0 0 0 0 0 0 0 0 0 0 0 0 0 0 0 0 0 0 0 0 0 0 0 
		24 0 0 0 0 0 0 0 0 0 29 25 0 0 0 0 0 34 0 0 0 0 0 0 23 0 0 0 0 29 0 0 0 0 35 0 0 0 31 27 0 0 0 0 0 0 37 0 0 0 0 
		25 0 0 0 0 0 0 0 25 0 0 0 40 21 0 0 0 23 0 0 0 0 0 0 0 0 0 0 0 0 0 0 0 0 0 0 0 0 22 0 0 0 0 34 0 0 0 0 0 0 0 
		26 0 0 0 0 0 0 0 20 0 0 0 0 0 0 0 0 0 0 0 0 0 37 0 27 0 0 0 0 0 0 0 0 0 0 0 0 0 0 22 0 0 0 0 0 0 0 0 0 0 0 
		27 0 0 0 0 0 0 0 0 0 0 0 0 0 0 0 0 0 0 0 0 0 0 0 0 0 0 0 0 0 0 0 23 0 0 0 0 0 0 0 0 0 0 0 0 0 0 36 0 0 0 
		28 0 0 0 0 0 0 0 39 0 0 0 0 0 0 0 0 0 0 0 0 0 0 0 0 29 0 0 0 0 0 0 0 0 0 0 0 0 27 0 0 30 0 0 0 0 0 0 0 0 0 
		29 0 0 0 0 0 0 0 0 0 0 38 0 0 31 0 0 0 0 0 0 0 38 0 0 0 0 0 0 0 0 0 0 0 0 0 0 0 0 0 0 0 0 0 0 0 0 0 0 0 0 
		30 0 0 0 0 0 33 0 0 0 0 0 0 0 0 0 0 24 0 0 0 0 0 0 0 0 0 0 0 0 0 0 0 0 0 0 0 0 0 0 0 0 0 0 0 0 0 0 0 0 0 
		31 0 0 0 31 0 0 0 0 0 0 0 0 0 0 0 0 0 0 0 0 0 0 38 0 0 0 0 23 0 0 0 0 0 0 0 0 0 0 0 0 0 0 0 0 32 0 0 0 0 0 
		32 0 0 26 0 0 0 39 0 0 0 0 0 0 0 0 0 0 0 0 0 0 0 0 0 0 0 0 0 0 0 0 0 0 0 0 0 0 0 0 0 0 25 0 0 0 0 0 0 0 0 
		33 0 27 0 0 0 0 0 0 34 0 0 0 0 0 0 0 0 0 0 0 0 0 22 0 35 0 0 0 0 0 0 0 0 0 0 0 0 0 34 0 0 0 0 0 0 40 33 0 0 0 
		34 0 0 0 0 0 0 38 0 0 25 0 0 32 0 0 0 0 0 0 24 0 0 0 0 0 0 0 0 0 0 0 0 0 0 0 0 0 0 0 0 0 0 0 0 34 0 0 0 0 0 
		35 0 0 0 0 0 0 0 35 0 0 0 0 0 0 0 0 0 0 0 0 0 22 0 0 0 0 0 0 0 0 0 0 0 0 0 0 0 0 0 26 0 0 0 28 0 0 0 0 0 0 
		36 0 0 0 0 0 0 0 0 0 0 0 0 0 0 0 27 0 0 38 0 24 0 0 0 0 0 0 0 0 0 0 0 0 0 0 0 0 0 0 0 0 0 38 0 0 25 0 0 0 0 
		37 0 0 0 0 0 0 0 0 0 34 0 0 0 0 0 39 0 0 0 32 0 0 0 0 31 22 0 0 27 0 0 0 0 0 0 0 0 0 0 0 0 0 0 0 0 0 0 0 0 0 
		38 0 0 0 40 0 0 0 0 0 0 0 0 0 0 21 0 0 0 0 0 0 25 0 0 27 0 22 0 0 0 0 0 0 34 0 0 0 0 0 0 0 0 0 0 0 39 28 40 0 0 
		39 0 0 0 0 0 0 0 0 0 0 0 35 0 0 0 0 33 0 0 0 0 0 0 0 0 0 0 0 0 0 0 0 0 0 0 26 0 0 0 0 0 0 0 0 0 0 0 0 20 0 
		40 0 0 0 0 0 0 0 0 0 0 0 0 0 0 0 0 0 0 0 0 0 0 0 0 0 0 0 0 30 0 0 0 0 0 0 0 0 0 0 0 0 0 0 0 0 0 0 0 0 0 
		41 30 0 0 0 0 0 0 0 0 0 0 26 0 0 0 0 0 25 0 0 0 0 0 0 0 0 0 0 0 0 0 0 25 0 0 0 0 0 0 0 0 0 0 0 0 0 0 0 0 0 
		42 0 25 0 0 0 0 0 0 0 0 0 28 0 0 0 31 0 0 0 36 0 0 0 0 0 34 0 0 0 0 0 0 0 0 0 0 38 0 0 0 0 0 0 0 0 25 0 0 0 0 
		43 0 0 0 0 0 0 0 0 0 0 0 0 0 0 0 0 0 40 0 36 38 0 0 0 0 0 0 0 0 0 0 0 0 0 0 28 0 0 0 0 0 0 0 0 29 0 0 0 0 0 
		44 0 0 29 0 0 0 0 0 37 0 0 0 0 0 0 0 20 0 0 0 0 0 0 0 0 0 0 0 0 0 0 32 0 0 34 0 0 0 0 0 0 0 0 29 0 0 0 35 0 0 
		45 0 0 0 0 0 0 37 0 0 0 0 0 0 0 0 0 0 0 0 0 0 0 0 0 37 0 0 0 0 0 0 0 0 40 0 0 25 0 39 0 0 0 25 0 0 0 26 0 0 0 
		46 0 0 0 0 0 0 0 38 0 0 0 0 0 0 0 0 0 0 0 0 0 0 0 0 0 0 0 36 0 0 0 0 0 33 0 0 0 0 28 0 0 0 0 0 0 26 0 0 0 0 
		47 0 0 0 0 0 0 0 0 0 0 0 0 0 0 0 0 0 0 0 0 39 0 37 0 0 0 0 0 0 0 0 0 0 0 0 0 0 0 40 0 0 0 0 0 35 0 0 0 24 0 
		48 0 0 0 0 0 0 0 0 0 0 0 0 0 0 0 0 0 0 0 35 0 0 0 0 0 0 0 0 0 0 0 0 0 0 0 0 0 0 0 20 0 0 0 0 0 0 0 24 0 0 
		49 0 0 0 0 0 0 33 0 0 0 0 0 0 0 0 26 0 0 0 0 21 0 0 0 0 0 0 0 0 0 0 0 0 0 0 0 0 0 0 0 0 0 0 0 0 0 0 0 0 0 
;
